data;

param n:=22;
param p:=4;
param r:=[1] 0 [2] 1 [3] 6 [4] 11 [5] 4 [6] 8 [7] 22 [8] 11 [9] 22 [10] 28 [11] 9 [12] 28 [13] 0 [14] 6 [15] 9 [16] 13 [17] 54 [18] 4 [19] 72 [20] 55 [21] 12 [22] 63 ;
param w:=[1] 46 [2] 68 [3] 51 [4] 62 [5] 97 [6] 73 [7] 29 [8] 92 [9] 12 [10] 75 [11] 29 [12] 76 [13] 70 [14] 59 [15] 68 [16] 11 [17] 7 [18] 60 [19] 57 [20] 98 [21] 40 [22] 81 ;

end;
